Read MPS format model from file dat/rmp/DER_96_4096_50.mps
Reading time = 0.89 seconds
: 4192 rows, 29984 columns, 2569647 nonzeros
Gurobi Optimizer version 9.0.0 build v9.0.0rc2 (linux64)
Optimize a model with 4192 rows, 29984 columns and 2569647 nonzeros
Model fingerprint: 0x3dd22cdc
Coefficient statistics:
  Matrix range     [4e-05, 1e+01]
  Objective range  [8e-01, 1e+03]
  Bounds range     [2e+04, 2e+04]
  RHS range        [1e+00, 1e+00]
Ordering time: 0.01s

Barrier statistics:
 AA' NZ     : 3.757e+05
 Factor NZ  : 4.223e+05 (roughly 17 MBytes of memory)
 Factor Ops : 4.444e+07 (less than 1 second per iteration)
 Threads    : 1

                  Objective                Residual
Iter       Primal          Dual         Primal    Dual     Compl     Time
   0   1.27449233e+09 -1.86275811e+08  9.87e+06 2.51e-02  5.04e+05     1s
   1   4.02237032e+07 -2.64404958e+07  2.84e+05 2.73e-12  1.53e+04     1s
   2   3.85214877e+06 -7.08099392e+06  2.61e+04 3.64e-12  1.59e+03     1s
   3   8.22813560e+04 -4.00781515e+06  3.16e+02 3.64e-12  1.48e+02     1s
   4   2.88361848e+04 -2.83886943e+04  5.73e-11 3.64e-12  1.90e+00     1s
   5   2.87226412e+04  2.15266589e+04  6.61e-11 2.73e-12  2.39e-01     2s
   6   2.85901939e+04  2.56672293e+04  5.37e-11 3.64e-12  9.72e-02     2s
   7   2.84619953e+04  2.74760223e+04  3.23e-11 3.64e-12  3.28e-02     2s
   8   2.83832337e+04  2.79359331e+04  5.41e-11 3.64e-12  1.49e-02     2s
   9   2.82752817e+04  2.80111351e+04  7.14e-11 2.73e-12  8.78e-03     2s
  10   2.82353038e+04  2.80827182e+04  7.57e-11 1.82e-12  5.07e-03     3s
  11   2.82031108e+04  2.81074367e+04  9.77e-11 1.82e-12  3.18e-03     3s
  12   2.81646768e+04  2.81271734e+04  3.71e-10 1.82e-12  1.25e-03     3s
  13   2.81481180e+04  2.81397614e+04  3.69e-10 1.82e-12  2.78e-04     3s
  14   2.81459400e+04  2.81414877e+04  6.96e-10 1.82e-12  1.48e-04     3s
  15   2.81450867e+04  2.81421911e+04  8.54e-10 3.64e-12  9.63e-05     4s
  16   2.81442687e+04  2.81425313e+04  1.18e-09 1.82e-12  5.78e-05     4s
  17   2.81437767e+04  2.81428080e+04  2.53e-09 3.64e-12  3.22e-05     4s
  18   2.81434539e+04  2.81428845e+04  3.18e-09 1.82e-12  1.89e-05     4s
  19   2.81432511e+04  2.81429425e+04  6.21e-09 1.82e-12  1.03e-05     5s
  20   2.81431289e+04  2.81429780e+04  6.32e-09 1.82e-12  5.02e-06     5s
  21   2.81430684e+04  2.81429878e+04  1.25e-08 1.82e-12  2.68e-06     5s
  22   2.81430362e+04  2.81429963e+04  9.32e-09 1.82e-12  1.32e-06     5s
  23   2.81430168e+04  2.81429979e+04  7.72e-09 1.82e-12  6.27e-07     5s
  24   2.81430065e+04  2.81430009e+04  2.51e-08 1.82e-12  1.87e-07     5s
  25   2.81430022e+04  2.81430020e+04  1.72e-07 3.64e-12  5.67e-09     6s

Barrier solved model in 25 iterations and 5.70 seconds
Optimal objective 2.81430022e+04

Solve time: 5.706925359
Barrier iterations: 25
